20
1 0 8
2 0 70
2 1 2
3 0 45
3 1 18
3 2 62
4 0 77
4 1 12
4 2 44
4 3 38
5 0 8
5 1 22
5 2 23
5 3 31
5 4 69
6 0 73
6 1 29
6 2 2
6 3 73
6 4 58
6 5 3
7 0 5
7 1 68
7 2 8
7 3 69
7 4 19
7 5 55
7 6 46
8 0 1
8 1 59
8 2 48
8 3 12
8 4 18
8 5 12
8 6 66
8 7 16
9 0 48
9 1 13
9 2 49
9 3 48
9 4 8
9 5 38
9 6 59
9 7 31
9 8 47
10 0 63
10 1 70
10 2 19
10 3 49
10 4 56
10 5 69
10 6 33
10 7 31
10 8 66
10 9 65
11 0 74
11 1 42
11 2 52
11 3 23
11 4 18
11 5 53
11 6 64
11 7 18
11 8 46
11 9 69
11 10 63
12 0 35
12 1 74
12 2 46
12 3 25
12 4 40
12 5 72
12 6 39
12 7 71
12 8 48
12 9 25
12 10 33
12 11 17
13 0 63
13 1 24
13 2 26
13 3 41
13 4 31
13 5 68
13 6 75
13 7 1
13 8 51
13 9 44
13 10 43
13 11 71
13 12 78
14 0 48
14 1 80
14 2 63
14 3 29
14 4 47
14 5 14
14 6 39
14 7 38
14 8 44
14 9 76
14 10 18
14 11 77
14 12 10
14 13 75
15 0 6
15 1 69
15 2 4
15 3 24
15 4 12
15 5 68
15 6 26
15 7 32
15 8 42
15 9 12
15 10 41
15 11 13
15 12 22
15 13 79
15 14 26
16 0 23
16 1 77
16 2 12
16 3 19
16 4 75
16 5 33
16 6 74
16 7 72
16 8 18
16 9 59
16 10 35
16 11 46
16 12 66
16 13 65
16 14 21
16 15 63
17 0 42
17 1 62
17 2 66
17 3 7
17 4 40
17 5 11
17 6 73
17 7 28
17 8 44
17 9 57
17 10 16
17 11 20
17 12 58
17 13 32
17 14 73
17 15 64
17 16 2
18 0 31
18 1 62
18 2 76
18 3 4
18 4 47
18 5 76
18 6 58
18 7 70
18 8 10
18 9 50
18 10 42
18 11 32
18 12 26
18 13 34
18 14 24
18 15 9
18 16 34
18 17 69
19 0 68
19 1 71
19 2 8
19 3 30
19 4 53
19 5 20
19 6 33
19 7 70
19 8 54
19 9 32
19 10 54
19 11 55
19 12 7
19 13 56
19 14 53
19 15 24
19 16 9
19 17 40
19 18 70
